
Gurobi 11.0.3 (win64) logging started Wed Sep  4 16:08:48 2024

Set parameter LogFile to value "C:\Users\ealvarezq\Desktop\K.Investments_per_hour\IEEE118_mod2_ByStages_nc70/openStarNet_IEEE118_mod2_ByStages_nc70.log"
Set parameter Method to value 2
Set parameter MIPFocus to value 1
Set parameter Presolve to value 2
Set parameter RINS to value 100
Set parameter MIPGap to value 0.01
Set parameter Threads to value 24
Set parameter TimeLimit to value 259200
Set parameter IterationLimit to value 760000000
Gurobi Optimizer version 11.0.3 build v11.0.3rc0 (win64 - Windows Server 2019.0 (17763.2))

CPU model: AMD Ryzen Threadripper PRO 3955WX 16-Cores, instruction set [SSE2|AVX|AVX2]
Thread count: 16 physical cores, 32 logical processors, using up to 24 threads

Optimize a model with 99473 rows, 73399 columns and 255924 nonzeros
Model fingerprint: 0x5804a59e
Variable types: 73365 continuous, 34 integer (34 binary)
Coefficient statistics:
  Matrix range     [2e-03, 9e+03]
  Objective range  [1e+00, 1e+00]
  Bounds range     [1e-04, 3e+00]
  RHS range        [2e-04, 3e+00]
Presolve removed 67304 rows and 33838 columns
Presolve time: 0.47s
Presolved: 32169 rows, 39561 columns, 117622 nonzeros
Variable types: 39527 continuous, 34 integer (34 binary)
Root relaxation presolved: 32169 rows, 39561 columns, 117622 nonzeros

Root barrier log...

Ordering time: 0.03s

Barrier statistics:
 Dense cols : 34
 AA' NZ     : 1.457e+05
 Factor NZ  : 5.644e+05 (roughly 34 MB of memory)
 Factor Ops : 1.180e+07 (less than 1 second per iteration)
 Threads    : 23

                  Objective                Residual
Iter       Primal          Dual         Primal    Dual     Compl     Time
   0   8.98206909e+06 -8.09548130e+08  1.56e+01 1.67e+03  3.79e+04     1s
   1   2.15291288e+06 -3.11191814e+08  3.42e+00 6.94e-09  7.81e+03     1s
   2   6.31039247e+05 -2.51074333e+08  7.28e-01 6.20e-09  3.53e+03     1s
   3   3.94887366e+05 -4.56732850e+07  2.82e-01 9.25e-09  6.37e+02     1s
   4   2.43310342e+05 -1.30575019e+07  2.25e-02 1.21e-09  1.46e+02     2s
   5   1.76396865e+05 -3.46284891e+06  2.90e-03 3.10e-10  3.86e+01     2s
   6   1.20796321e+05 -8.84410209e+05  1.15e-03 7.57e-11  1.06e+01     2s
   7   5.49237556e+04 -2.50144340e+05  3.35e-04 2.82e-11  3.22e+00     2s
   8   1.86123688e+04 -8.64526353e+04  7.22e-05 1.46e-11  1.11e+00     2s
   9   1.13084764e+04 -4.60859064e+04  3.58e-05 7.96e-12  6.05e-01     2s
  10   6.13412823e+03 -1.12164395e+04  1.32e-05 1.03e-11  1.83e-01     2s
  11   4.49803937e+03 -5.43317947e+03  8.11e-06 1.56e-11  1.05e-01     2s
  12   3.55678722e+03 -1.62399243e+03  5.74e-06 9.34e-12  5.46e-02     2s
  13   2.61864875e+03 -2.79635665e+02  3.39e-06 6.50e-12  3.05e-02     2s
  14   1.99514138e+03  4.54521641e+02  1.87e-06 4.04e-12  1.62e-02     2s
  15   1.64709844e+03  8.85478292e+02  1.07e-06 5.23e-12  8.02e-03     2s
  16   1.43114792e+03  9.83298745e+02  5.77e-07 4.17e-12  4.72e-03     2s
  17   1.33789487e+03  1.05976029e+03  3.71e-07 3.99e-12  2.93e-03     2s
  18   1.27850912e+03  1.09592194e+03  2.42e-07 4.02e-12  1.92e-03     2s
  19   1.24573829e+03  1.12105092e+03  1.71e-07 5.48e-12  1.31e-03     2s
  20   1.21462824e+03  1.13092088e+03  1.04e-07 2.30e-12  8.82e-04     2s
  21   1.19530687e+03  1.15222021e+03  6.32e-08 5.01e-12  4.54e-04     2s
  22   1.17558178e+03  1.16060352e+03  2.23e-08 1.64e-11  1.58e-04     2s
  23   1.17088693e+03  1.16259454e+03  1.28e-08 1.26e-11  8.74e-05     2s
  24   1.16798977e+03  1.16339777e+03  7.05e-09 8.18e-12  4.84e-05     2s
  25   1.16619035e+03  1.16391886e+03  3.53e-09 6.31e-12  2.39e-05     2s
  26   1.16517801e+03  1.16408668e+03  1.58e-09 3.88e-12  1.15e-05     2s
  27   1.16484074e+03  1.16418064e+03  9.32e-10 5.40e-12  6.95e-06     2s
  28   1.16448775e+03  1.16427847e+03  8.70e-09 1.08e-11  2.20e-06     2s
  29   1.16444014e+03  1.16431398e+03  6.02e-09 1.00e-11  1.33e-06     2s
  30   1.16436134e+03  1.16432661e+03  3.33e-08 6.43e-12  3.66e-07     2s
  31   1.16434302e+03  1.16433567e+03  1.08e-08 7.20e-12  7.74e-08     2s
  32   1.16433755e+03  1.16433730e+03  4.71e-09 3.63e-12  2.64e-09     2s
  33   1.16433742e+03  1.16433742e+03  4.02e-09 4.57e-12  4.98e-11     2s

Barrier solved model in 33 iterations and 2.06 seconds (1.21 work units)
Optimal objective 1.16433742e+03


Root relaxation: objective 1.164337e+03, 2937 iterations, 1.87 seconds (1.07 work units)

    Nodes    |    Current Node    |     Objective Bounds      |     Work
 Expl Unexpl |  Obj  Depth IntInf | Incumbent    BestBd   Gap | It/Node Time

     0     0 1164.33742    0   25          - 1164.33742      -     -    2s
H    0     0                    6596.1870110 1164.33742  82.3%     -    5s
H    0     0                    3092.1979010 1164.33742  62.3%     -    5s
     0     0 1184.20832    0   25 3092.19790 1184.20832  61.7%     -    8s
H    0     0                    1365.0596747 1184.20832  13.2%     -   10s
     0     0 1188.42479    0   24 1365.05967 1188.42479  12.9%     -   11s
     0     0 1188.42479    0   24 1365.05967 1188.42479  12.9%     -   11s
     0     0 1188.42479    0   24 1365.05967 1188.42479  12.9%     -   11s
     0     0 1188.42479    0   24 1365.05967 1188.42479  12.9%     -   12s
     0     0 1188.42479    0   23 1365.05967 1188.42479  12.9%     -   13s
     0     0 1188.42479    0   23 1365.05967 1188.42479  12.9%     -   13s
     0     0 1188.80475    0   23 1365.05967 1188.80475  12.9%     -   15s
     0     0 1188.80475    0   23 1365.05967 1188.80475  12.9%     -   15s
     0     0 1209.09593    0   23 1365.05967 1209.09593  11.4%     -   18s
     0     0 1209.09593    0   23 1365.05967 1209.09593  11.4%     -   18s
     0     0 1209.09593    0   23 1365.05967 1209.09593  11.4%     -   20s
H    0     0                    1318.6669163 1209.09593  8.31%     -  276s
     0     2 1209.09593    0   23 1318.66692 1209.09593  8.31%     -  277s
     3     8 1290.66085    2   22 1318.66692 1211.45812  8.13%  2509  283s
     7    16 1317.06169    3   22 1318.66692 1222.50364  7.29%  1788  289s
    15    22     cutoff    4      1318.66692 1226.59697  6.98%  1729  298s
    31    38 1236.31285    5   16 1318.66692 1231.57240  6.60%  1425  302s
    53    54 1247.63078    6   18 1318.66692 1236.40234  6.24%  1339  310s
    77    62 1260.02119    7   17 1318.66692 1245.79098  5.53%  1384  316s
   101    73 1268.77516    8   16 1318.66692 1245.82447  5.52%  1269  322s
   125    80     cutoff    9      1318.66692 1245.82447  5.52%  1216  325s
   153    81     cutoff    8      1318.66692 1245.82447  5.52%  1128  333s
   181    90     cutoff    9      1318.66692 1245.82447  5.52%  1069  339s
   212    94 1297.76319   10   15 1318.66692 1245.82447  5.52%   991  342s
   244    84 1305.65641   11   14 1318.66692 1245.82447  5.52%   933  345s
   336    83     cutoff   11      1318.66692 1247.68271  5.38%   783  351s
   443    68 1262.21471    8   16 1318.66692 1255.03107  4.83%   695  360s
   505    57     cutoff    9      1318.66692 1255.03107  4.83%   677  368s
   546    57 1268.85910    8   17 1318.66692 1255.03107  4.83%   660  370s
   596    42 1280.07390    9   15 1318.66692 1255.03107  4.83%   630  454s
   645    49     cutoff    9      1318.66692 1255.03107  4.83%   628  460s
   756    36 1297.12585   13   10 1318.66692 1255.03107  4.83%   595  465s
   894     7     cutoff    9      1318.66692 1267.10736  3.91%   540  470s

Cutting planes:
  Gomory: 3
  Implied bound: 171
  MIR: 313

Explored 1011 nodes (513492 simplex iterations) in 474.23 seconds (458.22 work units)
Thread count was 24 (of 32 available processors)

Solution count 4: 1318.67 1365.06 3092.2 6596.19 

Optimal solution found (tolerance 1.00e-02)
Best objective 1.318666916327e+03, best bound 1.307200670822e+03, gap 0.8695%

Gurobi 11.0.3 (win64) logging started Wed Sep  4 16:17:21 2024

Set parameter LogFile to value "C:\Users\ealvarezq\Desktop\K.Investments_per_hour\IEEE118_mod2_ByStages_nc70/openStarNet_IEEE118_mod2_ByStages_nc70.log"
Set parameter Method to value 2
Set parameter MIPFocus to value 1
Set parameter Presolve to value 2
Set parameter RINS to value 100
Set parameter MIPGap to value 0.01
Set parameter Threads to value 24
Set parameter TimeLimit to value 259200
Set parameter IterationLimit to value 760000000
Gurobi Optimizer version 11.0.3 build v11.0.3rc0 (win64 - Windows Server 2019.0 (17763.2))

CPU model: AMD Ryzen Threadripper PRO 3955WX 16-Cores, instruction set [SSE2|AVX|AVX2]
Thread count: 16 physical cores, 32 logical processors, using up to 24 threads

Optimize a model with 99473 rows, 73365 columns and 246370 nonzeros
Model fingerprint: 0x4e4f94b9
Coefficient statistics:
  Matrix range     [2e-03, 9e+03]
  Objective range  [1e+00, 1e+00]
  Bounds range     [1e-04, 3e+00]
  RHS range        [2e-04, 3e+02]
Presolve removed 74020 rows and 31991 columns
Presolve time: 0.23s
Presolved: 25453 rows, 41531 columns, 99291 nonzeros

Ordering time: 0.01s

Barrier statistics:
 AA' NZ     : 8.390e+04
 Factor NZ  : 3.341e+05 (roughly 30 MB of memory)
 Factor Ops : 4.811e+06 (less than 1 second per iteration)
 Threads    : 24

                  Objective                Residual
Iter       Primal          Dual         Primal    Dual     Compl     Time
   0   1.56441346e+07 -3.98327478e+08  9.41e+01 8.28e+01  1.76e+04     0s
   1   1.72310101e+06 -1.11481647e+08  9.02e+00 1.59e-12  2.19e+03     1s
   2   4.20540494e+05 -2.04905722e+07  1.33e+00 2.27e-12  3.17e+02     1s
   3   1.77751582e+05 -2.71256739e+06  4.46e-02 1.36e-12  3.31e+01     1s
   4   6.94099984e+04 -4.32228205e+05  6.34e-03 6.82e-13  5.57e+00     1s
   5   3.08857821e+04 -1.55955151e+05  2.47e-03 3.47e-13  2.06e+00     1s
   6   1.20581477e+04 -4.38126400e+04  6.31e-04 3.32e-13  6.16e-01     1s
   7   6.75891876e+03 -1.53920134e+04  2.42e-04 3.43e-13  2.44e-01     1s
   8   4.85500278e+03 -5.18470038e+03  1.41e-04 3.74e-13  1.11e-01     1s
   9   3.46331806e+03 -2.21644235e+03  7.97e-05 2.36e-13  6.26e-02     1s
  10   2.39207354e+03 -8.01491349e+01  3.69e-05 4.40e-13  2.73e-02     1s
  11   1.86038822e+03  6.05435504e+02  1.75e-05 4.15e-13  1.38e-02     1s
  12   1.65050719e+03  8.84331672e+02  1.04e-05 2.73e-13  8.45e-03     1s
  13   1.51821310e+03  1.06056594e+03  6.04e-06 4.48e-13  5.04e-03     1s
  14   1.44428083e+03  1.15498331e+03  3.72e-06 4.29e-13  3.19e-03     1s
  15   1.38314959e+03  1.22092358e+03  1.85e-06 2.31e-13  1.79e-03     1s
  16   1.34596642e+03  1.26710574e+03  7.32e-07 4.13e-13  8.69e-04     1s
  17   1.32939711e+03  1.29428220e+03  2.76e-07 2.57e-13  3.87e-04     1s
  18   1.32342684e+03  1.31173854e+03  1.16e-07 3.61e-13  1.29e-04     1s
  19   1.32085040e+03  1.31586879e+03  5.14e-08 3.47e-13  5.49e-05     1s
  20   1.31940542e+03  1.31820611e+03  1.60e-08 5.24e-13  1.32e-05     1s
  21   1.31874718e+03  1.31858961e+03  2.15e-09 5.30e-13  1.74e-06     1s
  22   1.31867102e+03  1.31866569e+03  1.37e-09 3.52e-13  5.88e-08     1s
  23   1.31866692e+03  1.31866691e+03  1.33e-09 3.90e-13  5.94e-11     1s

Barrier solved model in 23 iterations and 1.10 seconds (0.42 work units)
Optimal objective 1.31866692e+03

Crossover log...

    7291 DPushes remaining with DInf 0.0000000e+00                 1s
       0 DPushes remaining with DInf 0.0000000e+00                 1s

     447 PPushes remaining with PInf 0.0000000e+00                 1s
       0 PPushes remaining with PInf 0.0000000e+00                 1s

  Push phase complete: Pinf 0.0000000e+00, Dinf 2.9662230e-12      1s

Iteration    Objective       Primal Inf.    Dual Inf.      Time
    2087    1.3186669e+03   0.000000e+00   0.000000e+00      1s

Solved in 2087 iterations and 1.30 seconds (0.51 work units)
Optimal objective  1.318666916e+03
